* #variable= 50 #constraint= 1
min: -64 x1 -330 x2 -956 x3 -738 x4 -474 x5 -940 x6 -194 x7 -512 x8 -228 x9 -798 x10 -522 x11 -588 x12 -180 x13 -38 x14 -924 x15 -360 x16 -420 x17 -530 x18 -242 x19 -846 x20 -772 x21 -962 x22 -298 x23 -230 x24 -132 x25 -38 x26 -764 x27 -446 x28 -68 x29 -522 x30 -140 x31 -408 x32 -124 x33 -802 x34 -480 x35 -166 x36 -800 x37 -598 x38 -222 x39 -638 x40 -660 x41 -574 x42 -600 x43 -66 x44 -596 x45 -40 x46 -990 x47 -36 x48 -444 x49 -316 x50 ;
-64 x1 -330 x2 -956 x3 -738 x4 -474 x5 -940 x6 -194 x7 -512 x8 -228 x9 -798 x10 -522 x11 -588 x12 -180 x13 -38 x14 -924 x15 -360 x16 -420 x17 -530 x18 -242 x19 -846 x20 -772 x21 -962 x22 -298 x23 -230 x24 -132 x25 -38 x26 -764 x27 -446 x28 -68 x29 -522 x30 -140 x31 -408 x32 -124 x33 -802 x34 -480 x35 -166 x36 -800 x37 -598 x38 -222 x39 -638 x40 -660 x41 -574 x42 -600 x43 -66 x44 -596 x45 -40 x46 -990 x47 -36 x48 -444 x49 -316 x50 >= -22793 ;